# set
set V := C1 C2 C3 C4 C5 C6 C7 C8 C9 C10 ;
set F := F11 F12 F13 F14 F11_1 F11_2 F11_3 F11_4 F12_1 F12_2 F12_3 F12_4 F13_1 F13_2 F13_3 F13_4 F14_1 F14_2 F14_3 F14_4 ;
set D0 := N0;
set Dσ := Nσ;

# param
param Cf := 200;		# ECV fixed cost
param C := 200;		# ECV max load
param Q := 77.75;		# ECV/BSV battery level
param r := 1;		# ECV consumption

param Cr := 100;		# recharging cost
param Ct := 10;		# travel cost
param Cs ;		# battery swap cost
param n := 10;		# number of customers
param g := 1.17;	# recharging rate

param m :=
N0 0
C1 14
C2 10
C3 20
C4 10
C5 30
C6 16
C7 3
C8 2
C9 13
C10 28
F11 0
F11_1 0
F11_2 0
F11_3 0
F11_4 0
F12 0
F12_1 0
F12_2 0
F12_3 0
F12_4 0
F13 0
F13_1 0
F13_2 0
F13_3 0
F13_4 0
F14 0
F14_1 0
F14_2 0
F14_3 0
F14_4 0
Nσ 0
;

param e :=
N0 0
C1 19
C2 37
C3 57
C4 55
C5 65
C6 11
C7 50
C8 59
C9 93
C10 63
F11 0
F11_1 0
F11_2 0
F11_3 0
F11_4 0
F12 0
F12_1 0
F12_2 0
F12_3 0
F12_4 0
F13 0
F13_1 0
F13_2 0
F13_3 0
F13_4 0
F14 0
F14_1 0
F14_2 0
F14_3 0
F14_4 0
Nσ 0
;

param l :=
N0 240
C1 172
C2 192
C3 185
C4 174
C5 142
C6 150
C7 208
C8 144
C9 222
C10 140
F11 240
F11_1 240
F11_2 240
F11_3 240
F11_4 240
F12 240
F12_1 240
F12_2 240
F12_3 240
F12_4 240
F13 240
F13_1 240
F13_2 240
F13_3 240
F13_4 240
F14 240
F14_1 240
F14_2 240
F14_3 240
F14_4 240
Nσ 240
;

param s :=
N0 0
C1 10
C2 10
C3 10
C4 10
C5 10
C6 10
C7 10
C8 10
C9 10
C10 10
F11 0
F11_1 0
F11_2 0
F11_3 0
F11_4 0
F12 0
F12_1 0
F12_2 0
F12_3 0
F12_4 0
F13 0
F13_1 0
F13_2 0
F13_3 0
F13_4 0
F14 0
F14_1 0
F14_2 0
F14_3 0
F14_4 0
Nσ 0
;

param d : N0 C1 C2 C3 C4 C5 C6 C7 C8 C9 C10 F11 F11_1 F11_2 F11_3 F11_4 F12 F12_1 F12_2 F12_3 F12_4 F13 F13_1 F13_2 F13_3 F13_4 F14 F14_1 F14_2 F14_3 F14_4 Nσ  :=
N0 0.0000 19.2354 37.7359 44.2041 55.7136 38.4708 11.1803 21.0950 35.4683 7.6158 32.2025 0.0000 0.0000 0.0000 0.0000 0.0000 36.2353 36.2353 36.2353 36.2353 36.2353 35.1710 35.1710 35.1710 35.1710 35.1710 42.0595 42.0595 42.0595 42.0595 42.0595 0.0000
C1 19.2354 0.0000 53.7587 61.7738 55.0091 48.2701 9.2195 31.8904 27.2029 18.8680 17.4642 19.2354 19.2354 19.2354 19.2354 19.2354 54.7814 54.7814 54.7814 54.7814 54.7814 53.3385 53.3385 53.3385 53.3385 53.3385 40.0125 40.0125 40.0125 40.0125 40.0125 19.2354
C2 37.7359 53.7587 0.0000 47.0956 88.8144 19.7990 44.5982 50.8035 73.0068 44.2041 58.0086 37.7359 37.7359 37.7359 37.7359 37.7359 37.0000 37.0000 37.0000 37.0000 37.0000 11.1803 11.1803 11.1803 11.1803 11.1803 77.1557 77.1557 77.1557 77.1557 77.1557 37.7359
C3 44.2041 61.7738 47.0956 0.0000 60.4152 63.3246 55.2178 33.5410 62.1289 42.9418 76.4003 44.2041 44.2041 44.2041 44.2041 44.2041 10.4403 10.4403 10.4403 10.4403 10.4403 36.0139 36.0139 36.0139 36.0139 36.0139 55.9017 55.9017 55.9017 55.9017 55.9017 44.2041
C4 55.7136 55.0091 88.8144 60.4152 0.0000 94.0213 57.8705 38.0132 29.8329 48.1041 71.2531 55.7136 55.7136 55.7136 55.7136 55.7136 62.6817 62.6817 62.6817 62.6817 62.6817 81.4678 81.4678 81.4678 81.4678 81.4678 15.0000 15.0000 15.0000 15.0000 15.0000 55.7136
C5 38.4708 48.2701 19.7990 63.3246 94.0213 0.0000 40.3113 57.2800 72.6223 46.0652 46.4866 38.4708 38.4708 38.4708 38.4708 38.4708 52.8867 52.8867 52.8867 52.8867 52.8867 29.6816 29.6816 29.6816 29.6816 29.6816 80.5295 80.5295 80.5295 80.5295 80.5295 38.4708
C6 11.1803 9.2195 44.5982 55.2178 57.8705 40.3113 0.0000 28.6356 32.7567 13.8924 21.2603 11.1803 11.1803 11.1803 11.1803 11.1803 47.4131 47.4131 47.4131 47.4131 47.4131 44.1814 44.1814 44.1814 44.1814 44.1814 43.1741 43.1741 43.1741 43.1741 43.1741 11.1803
C7 21.0950 31.8904 50.8035 33.5410 38.0132 57.2800 28.6356 0.0000 29.0689 14.8661 48.8262 21.0950 21.0950 21.0950 21.0950 21.0950 30.2655 30.2655 30.2655 30.2655 30.2655 43.8634 43.8634 43.8634 43.8634 43.8634 27.2029 27.2029 27.2029 27.2029 27.2029 21.0950
C8 35.4683 27.2029 73.0068 62.1289 29.8329 72.6223 32.7567 29.0689 0.0000 28.8444 42.0119 35.4683 35.4683 35.4683 35.4683 35.4683 59.3043 59.3043 59.3043 59.3043 59.3043 68.8840 68.8840 68.8840 68.8840 68.8840 15.6525 15.6525 15.6525 15.6525 15.6525 35.4683
C9 7.6158 18.8680 44.2041 42.9418 48.1041 46.0652 13.8924 14.8661 28.8444 0.0000 34.7131 7.6158 7.6158 7.6158 7.6158 7.6158 36.4005 36.4005 36.4005 36.4005 36.4005 40.3113 40.3113 40.3113 40.3113 40.3113 34.4819 34.4819 34.4819 34.4819 34.4819 7.6158
C10 32.2025 17.4642 58.0086 76.4003 71.2531 46.4866 21.2603 48.8262 42.0119 34.7131 0.0000 32.2025 32.2025 32.2025 32.2025 32.2025 68.2642 68.2642 68.2642 68.2642 68.2642 60.8276 60.8276 60.8276 60.8276 60.8276 56.3205 56.3205 56.3205 56.3205 56.3205 32.2025
F11 0.0000 19.2354 37.7359 44.2041 55.7136 38.4708 11.1803 21.0950 35.4683 7.6158 32.2025 0.0000 0.0000 0.0000 0.0000 0.0000 36.2353 36.2353 36.2353 36.2353 36.2353 35.1710 35.1710 35.1710 35.1710 35.1710 42.0595 42.0595 42.0595 42.0595 42.0595 0.0000
F11_1 0.0000 19.2354 37.7359 44.2041 55.7136 38.4708 11.1803 21.0950 35.4683 7.6158 32.2025 0.0000 0.0000 0.0000 0.0000 0.0000 36.2353 36.2353 36.2353 36.2353 36.2353 35.1710 35.1710 35.1710 35.1710 35.1710 42.0595 42.0595 42.0595 42.0595 42.0595 0.0000
F11_2 0.0000 19.2354 37.7359 44.2041 55.7136 38.4708 11.1803 21.0950 35.4683 7.6158 32.2025 0.0000 0.0000 0.0000 0.0000 0.0000 36.2353 36.2353 36.2353 36.2353 36.2353 35.1710 35.1710 35.1710 35.1710 35.1710 42.0595 42.0595 42.0595 42.0595 42.0595 0.0000
F11_3 0.0000 19.2354 37.7359 44.2041 55.7136 38.4708 11.1803 21.0950 35.4683 7.6158 32.2025 0.0000 0.0000 0.0000 0.0000 0.0000 36.2353 36.2353 36.2353 36.2353 36.2353 35.1710 35.1710 35.1710 35.1710 35.1710 42.0595 42.0595 42.0595 42.0595 42.0595 0.0000
F11_4 0.0000 19.2354 37.7359 44.2041 55.7136 38.4708 11.1803 21.0950 35.4683 7.6158 32.2025 0.0000 0.0000 0.0000 0.0000 0.0000 36.2353 36.2353 36.2353 36.2353 36.2353 35.1710 35.1710 35.1710 35.1710 35.1710 42.0595 42.0595 42.0595 42.0595 42.0595 0.0000
F12 36.2353 54.7814 37.0000 10.4403 62.6817 52.8867 47.4131 30.2655 59.3043 36.4005 68.2642 36.2353 36.2353 36.2353 36.2353 36.2353 0.0000 0.0000 0.0000 0.0000 0.0000 26.0768 26.0768 26.0768 26.0768 26.0768 55.7136 55.7136 55.7136 55.7136 55.7136 36.2353
F12_1 36.2353 54.7814 37.0000 10.4403 62.6817 52.8867 47.4131 30.2655 59.3043 36.4005 68.2642 36.2353 36.2353 36.2353 36.2353 36.2353 0.0000 0.0000 0.0000 0.0000 0.0000 26.0768 26.0768 26.0768 26.0768 26.0768 55.7136 55.7136 55.7136 55.7136 55.7136 36.2353
F12_2 36.2353 54.7814 37.0000 10.4403 62.6817 52.8867 47.4131 30.2655 59.3043 36.4005 68.2642 36.2353 36.2353 36.2353 36.2353 36.2353 0.0000 0.0000 0.0000 0.0000 0.0000 26.0768 26.0768 26.0768 26.0768 26.0768 55.7136 55.7136 55.7136 55.7136 55.7136 36.2353
F12_3 36.2353 54.7814 37.0000 10.4403 62.6817 52.8867 47.4131 30.2655 59.3043 36.4005 68.2642 36.2353 36.2353 36.2353 36.2353 36.2353 0.0000 0.0000 0.0000 0.0000 0.0000 26.0768 26.0768 26.0768 26.0768 26.0768 55.7136 55.7136 55.7136 55.7136 55.7136 36.2353
F12_4 36.2353 54.7814 37.0000 10.4403 62.6817 52.8867 47.4131 30.2655 59.3043 36.4005 68.2642 36.2353 36.2353 36.2353 36.2353 36.2353 0.0000 0.0000 0.0000 0.0000 0.0000 26.0768 26.0768 26.0768 26.0768 26.0768 55.7136 55.7136 55.7136 55.7136 55.7136 36.2353
F13 35.1710 53.3385 11.1803 36.0139 81.4678 29.6816 44.1814 43.8634 68.8840 40.3113 60.8276 35.1710 35.1710 35.1710 35.1710 35.1710 26.0768 26.0768 26.0768 26.0768 26.0768 0.0000 0.0000 0.0000 0.0000 0.0000 70.9366 70.9366 70.9366 70.9366 70.9366 35.1710
F13_1 35.1710 53.3385 11.1803 36.0139 81.4678 29.6816 44.1814 43.8634 68.8840 40.3113 60.8276 35.1710 35.1710 35.1710 35.1710 35.1710 26.0768 26.0768 26.0768 26.0768 26.0768 0.0000 0.0000 0.0000 0.0000 0.0000 70.9366 70.9366 70.9366 70.9366 70.9366 35.1710
F13_2 35.1710 53.3385 11.1803 36.0139 81.4678 29.6816 44.1814 43.8634 68.8840 40.3113 60.8276 35.1710 35.1710 35.1710 35.1710 35.1710 26.0768 26.0768 26.0768 26.0768 26.0768 0.0000 0.0000 0.0000 0.0000 0.0000 70.9366 70.9366 70.9366 70.9366 70.9366 35.1710
F13_3 35.1710 53.3385 11.1803 36.0139 81.4678 29.6816 44.1814 43.8634 68.8840 40.3113 60.8276 35.1710 35.1710 35.1710 35.1710 35.1710 26.0768 26.0768 26.0768 26.0768 26.0768 0.0000 0.0000 0.0000 0.0000 0.0000 70.9366 70.9366 70.9366 70.9366 70.9366 35.1710
F13_4 35.1710 53.3385 11.1803 36.0139 81.4678 29.6816 44.1814 43.8634 68.8840 40.3113 60.8276 35.1710 35.1710 35.1710 35.1710 35.1710 26.0768 26.0768 26.0768 26.0768 26.0768 0.0000 0.0000 0.0000 0.0000 0.0000 70.9366 70.9366 70.9366 70.9366 70.9366 35.1710
F14 42.0595 40.0125 77.1557 55.9017 15.0000 80.5295 43.1741 27.2029 15.6525 34.4819 56.3205 42.0595 42.0595 42.0595 42.0595 42.0595 55.7136 55.7136 55.7136 55.7136 55.7136 70.9366 70.9366 70.9366 70.9366 70.9366 0.0000 0.0000 0.0000 0.0000 0.0000 42.0595
F14_1 42.0595 40.0125 77.1557 55.9017 15.0000 80.5295 43.1741 27.2029 15.6525 34.4819 56.3205 42.0595 42.0595 42.0595 42.0595 42.0595 55.7136 55.7136 55.7136 55.7136 55.7136 70.9366 70.9366 70.9366 70.9366 70.9366 0.0000 0.0000 0.0000 0.0000 0.0000 42.0595
F14_2 42.0595 40.0125 77.1557 55.9017 15.0000 80.5295 43.1741 27.2029 15.6525 34.4819 56.3205 42.0595 42.0595 42.0595 42.0595 42.0595 55.7136 55.7136 55.7136 55.7136 55.7136 70.9366 70.9366 70.9366 70.9366 70.9366 0.0000 0.0000 0.0000 0.0000 0.0000 42.0595
F14_3 42.0595 40.0125 77.1557 55.9017 15.0000 80.5295 43.1741 27.2029 15.6525 34.4819 56.3205 42.0595 42.0595 42.0595 42.0595 42.0595 55.7136 55.7136 55.7136 55.7136 55.7136 70.9366 70.9366 70.9366 70.9366 70.9366 0.0000 0.0000 0.0000 0.0000 0.0000 42.0595
F14_4 42.0595 40.0125 77.1557 55.9017 15.0000 80.5295 43.1741 27.2029 15.6525 34.4819 56.3205 42.0595 42.0595 42.0595 42.0595 42.0595 55.7136 55.7136 55.7136 55.7136 55.7136 70.9366 70.9366 70.9366 70.9366 70.9366 0.0000 0.0000 0.0000 0.0000 0.0000 42.0595
Nσ 0.0000 19.2354 37.7359 44.2041 55.7136 38.4708 11.1803 21.0950 35.4683 7.6158 32.2025 0.0000 0.0000 0.0000 0.0000 0.0000 36.2353 36.2353 36.2353 36.2353 36.2353 35.1710 35.1710 35.1710 35.1710 35.1710 42.0595 42.0595 42.0595 42.0595 42.0595 0.0000
;

param t : N0 C1 C2 C3 C4 C5 C6 C7 C8 C9 C10 F11 F11_1 F11_2 F11_3 F11_4 F12 F12_1 F12_2 F12_3 F12_4 F13 F13_1 F13_2 F13_3 F13_4 F14 F14_1 F14_2 F14_3 F14_4 Nσ  :=
N0 0.0000 19.2354 37.7359 44.2041 55.7136 38.4708 11.1803 21.0950 35.4683 7.6158 32.2025 0.0000 0.0000 0.0000 0.0000 0.0000 36.2353 36.2353 36.2353 36.2353 36.2353 35.1710 35.1710 35.1710 35.1710 35.1710 42.0595 42.0595 42.0595 42.0595 42.0595 0.0000
C1 19.2354 0.0000 53.7587 61.7738 55.0091 48.2701 9.2195 31.8904 27.2029 18.8680 17.4642 19.2354 19.2354 19.2354 19.2354 19.2354 54.7814 54.7814 54.7814 54.7814 54.7814 53.3385 53.3385 53.3385 53.3385 53.3385 40.0125 40.0125 40.0125 40.0125 40.0125 19.2354
C2 37.7359 53.7587 0.0000 47.0956 88.8144 19.7990 44.5982 50.8035 73.0068 44.2041 58.0086 37.7359 37.7359 37.7359 37.7359 37.7359 37.0000 37.0000 37.0000 37.0000 37.0000 11.1803 11.1803 11.1803 11.1803 11.1803 77.1557 77.1557 77.1557 77.1557 77.1557 37.7359
C3 44.2041 61.7738 47.0956 0.0000 60.4152 63.3246 55.2178 33.5410 62.1289 42.9418 76.4003 44.2041 44.2041 44.2041 44.2041 44.2041 10.4403 10.4403 10.4403 10.4403 10.4403 36.0139 36.0139 36.0139 36.0139 36.0139 55.9017 55.9017 55.9017 55.9017 55.9017 44.2041
C4 55.7136 55.0091 88.8144 60.4152 0.0000 94.0213 57.8705 38.0132 29.8329 48.1041 71.2531 55.7136 55.7136 55.7136 55.7136 55.7136 62.6817 62.6817 62.6817 62.6817 62.6817 81.4678 81.4678 81.4678 81.4678 81.4678 15.0000 15.0000 15.0000 15.0000 15.0000 55.7136
C5 38.4708 48.2701 19.7990 63.3246 94.0213 0.0000 40.3113 57.2800 72.6223 46.0652 46.4866 38.4708 38.4708 38.4708 38.4708 38.4708 52.8867 52.8867 52.8867 52.8867 52.8867 29.6816 29.6816 29.6816 29.6816 29.6816 80.5295 80.5295 80.5295 80.5295 80.5295 38.4708
C6 11.1803 9.2195 44.5982 55.2178 57.8705 40.3113 0.0000 28.6356 32.7567 13.8924 21.2603 11.1803 11.1803 11.1803 11.1803 11.1803 47.4131 47.4131 47.4131 47.4131 47.4131 44.1814 44.1814 44.1814 44.1814 44.1814 43.1741 43.1741 43.1741 43.1741 43.1741 11.1803
C7 21.0950 31.8904 50.8035 33.5410 38.0132 57.2800 28.6356 0.0000 29.0689 14.8661 48.8262 21.0950 21.0950 21.0950 21.0950 21.0950 30.2655 30.2655 30.2655 30.2655 30.2655 43.8634 43.8634 43.8634 43.8634 43.8634 27.2029 27.2029 27.2029 27.2029 27.2029 21.0950
C8 35.4683 27.2029 73.0068 62.1289 29.8329 72.6223 32.7567 29.0689 0.0000 28.8444 42.0119 35.4683 35.4683 35.4683 35.4683 35.4683 59.3043 59.3043 59.3043 59.3043 59.3043 68.8840 68.8840 68.8840 68.8840 68.8840 15.6525 15.6525 15.6525 15.6525 15.6525 35.4683
C9 7.6158 18.8680 44.2041 42.9418 48.1041 46.0652 13.8924 14.8661 28.8444 0.0000 34.7131 7.6158 7.6158 7.6158 7.6158 7.6158 36.4005 36.4005 36.4005 36.4005 36.4005 40.3113 40.3113 40.3113 40.3113 40.3113 34.4819 34.4819 34.4819 34.4819 34.4819 7.6158
C10 32.2025 17.4642 58.0086 76.4003 71.2531 46.4866 21.2603 48.8262 42.0119 34.7131 0.0000 32.2025 32.2025 32.2025 32.2025 32.2025 68.2642 68.2642 68.2642 68.2642 68.2642 60.8276 60.8276 60.8276 60.8276 60.8276 56.3205 56.3205 56.3205 56.3205 56.3205 32.2025
F11 0.0000 19.2354 37.7359 44.2041 55.7136 38.4708 11.1803 21.0950 35.4683 7.6158 32.2025 0.0000 0.0000 0.0000 0.0000 0.0000 36.2353 36.2353 36.2353 36.2353 36.2353 35.1710 35.1710 35.1710 35.1710 35.1710 42.0595 42.0595 42.0595 42.0595 42.0595 0.0000
F11_1 0.0000 19.2354 37.7359 44.2041 55.7136 38.4708 11.1803 21.0950 35.4683 7.6158 32.2025 0.0000 0.0000 0.0000 0.0000 0.0000 36.2353 36.2353 36.2353 36.2353 36.2353 35.1710 35.1710 35.1710 35.1710 35.1710 42.0595 42.0595 42.0595 42.0595 42.0595 0.0000
F11_2 0.0000 19.2354 37.7359 44.2041 55.7136 38.4708 11.1803 21.0950 35.4683 7.6158 32.2025 0.0000 0.0000 0.0000 0.0000 0.0000 36.2353 36.2353 36.2353 36.2353 36.2353 35.1710 35.1710 35.1710 35.1710 35.1710 42.0595 42.0595 42.0595 42.0595 42.0595 0.0000
F11_3 0.0000 19.2354 37.7359 44.2041 55.7136 38.4708 11.1803 21.0950 35.4683 7.6158 32.2025 0.0000 0.0000 0.0000 0.0000 0.0000 36.2353 36.2353 36.2353 36.2353 36.2353 35.1710 35.1710 35.1710 35.1710 35.1710 42.0595 42.0595 42.0595 42.0595 42.0595 0.0000
F11_4 0.0000 19.2354 37.7359 44.2041 55.7136 38.4708 11.1803 21.0950 35.4683 7.6158 32.2025 0.0000 0.0000 0.0000 0.0000 0.0000 36.2353 36.2353 36.2353 36.2353 36.2353 35.1710 35.1710 35.1710 35.1710 35.1710 42.0595 42.0595 42.0595 42.0595 42.0595 0.0000
F12 36.2353 54.7814 37.0000 10.4403 62.6817 52.8867 47.4131 30.2655 59.3043 36.4005 68.2642 36.2353 36.2353 36.2353 36.2353 36.2353 0.0000 0.0000 0.0000 0.0000 0.0000 26.0768 26.0768 26.0768 26.0768 26.0768 55.7136 55.7136 55.7136 55.7136 55.7136 36.2353
F12_1 36.2353 54.7814 37.0000 10.4403 62.6817 52.8867 47.4131 30.2655 59.3043 36.4005 68.2642 36.2353 36.2353 36.2353 36.2353 36.2353 0.0000 0.0000 0.0000 0.0000 0.0000 26.0768 26.0768 26.0768 26.0768 26.0768 55.7136 55.7136 55.7136 55.7136 55.7136 36.2353
F12_2 36.2353 54.7814 37.0000 10.4403 62.6817 52.8867 47.4131 30.2655 59.3043 36.4005 68.2642 36.2353 36.2353 36.2353 36.2353 36.2353 0.0000 0.0000 0.0000 0.0000 0.0000 26.0768 26.0768 26.0768 26.0768 26.0768 55.7136 55.7136 55.7136 55.7136 55.7136 36.2353
F12_3 36.2353 54.7814 37.0000 10.4403 62.6817 52.8867 47.4131 30.2655 59.3043 36.4005 68.2642 36.2353 36.2353 36.2353 36.2353 36.2353 0.0000 0.0000 0.0000 0.0000 0.0000 26.0768 26.0768 26.0768 26.0768 26.0768 55.7136 55.7136 55.7136 55.7136 55.7136 36.2353
F12_4 36.2353 54.7814 37.0000 10.4403 62.6817 52.8867 47.4131 30.2655 59.3043 36.4005 68.2642 36.2353 36.2353 36.2353 36.2353 36.2353 0.0000 0.0000 0.0000 0.0000 0.0000 26.0768 26.0768 26.0768 26.0768 26.0768 55.7136 55.7136 55.7136 55.7136 55.7136 36.2353
F13 35.1710 53.3385 11.1803 36.0139 81.4678 29.6816 44.1814 43.8634 68.8840 40.3113 60.8276 35.1710 35.1710 35.1710 35.1710 35.1710 26.0768 26.0768 26.0768 26.0768 26.0768 0.0000 0.0000 0.0000 0.0000 0.0000 70.9366 70.9366 70.9366 70.9366 70.9366 35.1710
F13_1 35.1710 53.3385 11.1803 36.0139 81.4678 29.6816 44.1814 43.8634 68.8840 40.3113 60.8276 35.1710 35.1710 35.1710 35.1710 35.1710 26.0768 26.0768 26.0768 26.0768 26.0768 0.0000 0.0000 0.0000 0.0000 0.0000 70.9366 70.9366 70.9366 70.9366 70.9366 35.1710
F13_2 35.1710 53.3385 11.1803 36.0139 81.4678 29.6816 44.1814 43.8634 68.8840 40.3113 60.8276 35.1710 35.1710 35.1710 35.1710 35.1710 26.0768 26.0768 26.0768 26.0768 26.0768 0.0000 0.0000 0.0000 0.0000 0.0000 70.9366 70.9366 70.9366 70.9366 70.9366 35.1710
F13_3 35.1710 53.3385 11.1803 36.0139 81.4678 29.6816 44.1814 43.8634 68.8840 40.3113 60.8276 35.1710 35.1710 35.1710 35.1710 35.1710 26.0768 26.0768 26.0768 26.0768 26.0768 0.0000 0.0000 0.0000 0.0000 0.0000 70.9366 70.9366 70.9366 70.9366 70.9366 35.1710
F13_4 35.1710 53.3385 11.1803 36.0139 81.4678 29.6816 44.1814 43.8634 68.8840 40.3113 60.8276 35.1710 35.1710 35.1710 35.1710 35.1710 26.0768 26.0768 26.0768 26.0768 26.0768 0.0000 0.0000 0.0000 0.0000 0.0000 70.9366 70.9366 70.9366 70.9366 70.9366 35.1710
F14 42.0595 40.0125 77.1557 55.9017 15.0000 80.5295 43.1741 27.2029 15.6525 34.4819 56.3205 42.0595 42.0595 42.0595 42.0595 42.0595 55.7136 55.7136 55.7136 55.7136 55.7136 70.9366 70.9366 70.9366 70.9366 70.9366 0.0000 0.0000 0.0000 0.0000 0.0000 42.0595
F14_1 42.0595 40.0125 77.1557 55.9017 15.0000 80.5295 43.1741 27.2029 15.6525 34.4819 56.3205 42.0595 42.0595 42.0595 42.0595 42.0595 55.7136 55.7136 55.7136 55.7136 55.7136 70.9366 70.9366 70.9366 70.9366 70.9366 0.0000 0.0000 0.0000 0.0000 0.0000 42.0595
F14_2 42.0595 40.0125 77.1557 55.9017 15.0000 80.5295 43.1741 27.2029 15.6525 34.4819 56.3205 42.0595 42.0595 42.0595 42.0595 42.0595 55.7136 55.7136 55.7136 55.7136 55.7136 70.9366 70.9366 70.9366 70.9366 70.9366 0.0000 0.0000 0.0000 0.0000 0.0000 42.0595
F14_3 42.0595 40.0125 77.1557 55.9017 15.0000 80.5295 43.1741 27.2029 15.6525 34.4819 56.3205 42.0595 42.0595 42.0595 42.0595 42.0595 55.7136 55.7136 55.7136 55.7136 55.7136 70.9366 70.9366 70.9366 70.9366 70.9366 0.0000 0.0000 0.0000 0.0000 0.0000 42.0595
F14_4 42.0595 40.0125 77.1557 55.9017 15.0000 80.5295 43.1741 27.2029 15.6525 34.4819 56.3205 42.0595 42.0595 42.0595 42.0595 42.0595 55.7136 55.7136 55.7136 55.7136 55.7136 70.9366 70.9366 70.9366 70.9366 70.9366 0.0000 0.0000 0.0000 0.0000 0.0000 42.0595
Nσ 0.0000 19.2354 37.7359 44.2041 55.7136 38.4708 11.1803 21.0950 35.4683 7.6158 32.2025 0.0000 0.0000 0.0000 0.0000 0.0000 36.2353 36.2353 36.2353 36.2353 36.2353 35.1710 35.1710 35.1710 35.1710 35.1710 42.0595 42.0595 42.0595 42.0595 42.0595 0.0000
;
